c turning on binary mode checking
c parsing input formula with 202048 variables and 780985 clauses
c finished parsing, read 16542879 bytes from proof file
c detected empty clause; start verification via backward checking
c 13547 of 780985 clauses in core                            
c 16409 of 448072 lemmas in core using 136466 resolution steps
c 0 RAT lemmas in core; 1012 redundant literals in core lemmas
s VERIFIED
c verification time: 2.211 seconds
